--- Job LocationAllocationBase.gms Start 11/04/23 14:06:03 44.4.0 06604687 WEX-WEI x86 64bit/MS Windows
--- Applying:
    Q:\GAMS\44\gmsprmNT.txt
    C:\Users\redhawc\Documents\GAMS\gamsconfig.yaml
--- GAMS Parameters defined
    Input C:\Users\redhawc\Desktop\EDI_BUSANA\mathematic\GAMS_CODE\LocationAllocationBase.gms
    PageSize 0
    ScrDir C:\Users\redhawc\Desktop\EDI_BUSANA\mathematic\GAMS_CODE\225a\
    SysDir Q:\GAMS\44\
    LogOption 3
    ErrMsg 1
    ErrorLog 99
    IDE 1
    LstTitleLeftAligned 1
Licensee: Course License                                 S230704|0002AO-GEN
          University of Edinburgh, Business School                  DCE2899
          C:\Users\redhawc\Documents\GAMS\gamslice.txt
          License Admin: Douglas Alem, douglas.alem@ed.ac.uk               
          Course license for use within the course and related course work
Processor information: 1 socket(s), 8 core(s), and 16 thread(s) available
GAMS 44.4.0   Copyright (C) 1987-2023 GAMS Development. All rights reserved
--- Starting compilation
--- LocationAllocationBase.gms(124) 3 Mb
--- Starting execution: elapsed 0:00:00.010
--- LocationAllocationBase.gms(89) 4 Mb
--- Generating MIP model LocationAllocation
--- LocationAllocationBase.gms(119) 4 Mb
---   55 rows  703 columns  2,757 non-zeroes
---   26 discrete-columns
--- Range statistics (absolute non-zero finite values)
--- RHS       [min, max] : [ 2.000E+01, 1.000E+06] - Zero values observed as well
--- Bound     [min, max] : [ 1.000E+00, 1.000E+00] - Zero values observed as well
--- Matrix    [min, max] : [ 1.000E+00, 2.500E+05]
--- Executing CPLEX (Solvelink=2): elapsed 0:00:00.048

IBM ILOG CPLEX   44.4.0 06604687 Sep 19, 2023          WEI x86 64bit/MS Window

--- GAMS/CPLEX licensed for continuous and discrete problems.
--- GMO setup time: 0.00s
--- Space for names approximately 0.01 Mb
--- Use option 'names no' to turn use of names off
--- GMO memory 0.59 Mb (peak 0.59 Mb)
--- Dictionary memory 0.00 Mb
--- Cplex 22.1.1.0 link memory 0.01 Mb (peak 0.06 Mb)
--- Starting Cplex

Version identifier: 22.1.1.0 | 2022-11-27 | 9160aff4d
CPXPARAM_Advance                                 0
CPXPARAM_Threads                                 1
CPXPARAM_MIP_Display                             4
CPXPARAM_MIP_Pool_Capacity                       0
CPXPARAM_MIP_Tolerances_AbsMIPGap                0
CPXPARAM_MIP_Tolerances_MIPGap                   0
Generic callback                                 0x50
Found incumbent of value 0.000000 after 0.00 sec. (0.01 ticks)
Tried aggregator 1 time.
MIP Presolve eliminated 0 rows and 1 columns.
MIP Presolve modified 23 coefficients.
Reduced MIP has 54 rows, 702 columns, and 2080 nonzeros.
Reduced MIP has 26 binaries, 0 generals, 0 SOSs, and 0 indicators.
Presolve time = 0.02 sec. (0.74 ticks)
Probing fixed 0 vars, tightened 558 bounds.
Probing time = 0.00 sec. (0.82 ticks)
Tried aggregator 1 time.
Detecting symmetries...
MIP Presolve modified 24 coefficients.
Reduced MIP has 54 rows, 702 columns, and 2080 nonzeros.
Reduced MIP has 26 binaries, 0 generals, 0 SOSs, and 0 indicators.
Presolve time = 0.02 sec. (0.90 ticks)
Dual steepest-edge pricing selected.
Probing time = 0.00 sec. (0.07 ticks)
MIP emphasis: balance optimality and feasibility.
MIP search method: dynamic search.
Parallel mode: none, using 1 thread.

Iteration log . . .
Iteration:     1   Dual objective     =       3387351.596074
Iteration:    62   Dual objective     =       1665423.000000
Root relaxation solution time = 0.00 sec. (0.63 ticks)

        Nodes                                         Cuts/
   Node  Left     Objective  IInf  Best Integer    Best Bound    ItCnt     Gap

*     0+    0                            0.0000  3520067.2881              --- 
Found incumbent of value 0.000000 after 0.03 sec. (3.80 ticks)
      0     0  1665423.0000    26        0.0000  1665423.0000       82     --- 
*     0+    0                      1104638.8064  1665423.0000            50.77%
Found incumbent of value 1104638.806435 after 0.05 sec. (5.06 ticks)
      0     0  1665423.0000    10  1104638.8064      Cuts: 10      100   50.77%
*     0+    0                      1522310.0596  1665423.0000             9.40%
Found incumbent of value 1522310.059591 after 0.06 sec. (12.24 ticks)
      0     0  1665423.0000    10  1522310.0596      Cuts: 28      121    9.40%
*     0+    0                      1539171.8543  1665423.0000             8.20%
Found incumbent of value 1539171.854319 after 0.06 sec. (14.11 ticks)
*     0     0      integral     0  1653165.4915      Cuts: 13      139    0.00%
Found incumbent of value 1653165.491500 after 0.06 sec. (16.68 ticks)
      0     0        cutoff        1653165.4915  1653165.4915      139    0.00%
Elapsed time = 0.06 sec. (16.68 ticks, tree = 0.01 MB)

Implied bound cuts applied:  33
Flow cuts applied:  1
Mixed integer rounding cuts applied:  8
Gomory fractional cuts applied:  1

Root node processing (before b&c):
  Real time             =    0.06 sec. (16.71 ticks)
Sequential b&c:
  Real time             =    0.00 sec. (0.00 ticks)
                          ------------
Total (root+branch&cut) =    0.06 sec. (16.71 ticks)

--- MIP status (101): integer optimal solution.
--- Cplex Time: 0.06sec (det. 16.71 ticks)

--- Returning a primal only solution to GAMS (marginals all set to NA).
--- Fixing integer variables and solving final LP...

Version identifier: 22.1.1.0 | 2022-11-27 | 9160aff4d
CPXPARAM_Advance                                 2
CPXPARAM_Threads                                 1
CPXPARAM_MIP_Display                             4
CPXPARAM_MIP_Pool_Capacity                       0
CPXPARAM_MIP_Tolerances_AbsMIPGap                0
CPXPARAM_MIP_Tolerances_MIPGap                   0
Tried aggregator 1 time.
LP Presolve eliminated 26 rows and 183 columns.
Reduced LP has 28 rows, 520 columns, and 1046 nonzeros.
Presolve time = 0.00 sec. (0.43 ticks)
Initializing dual steep norms . . .

Iteration log . . .
Iteration:     1   Scaled dual infeas =             0.999862
Iteration:     3   Dual objective     =       1653165.491500

--- Fixed MIP status (1): optimal.
--- Cplex Time: 0.00sec (det. 0.74 ticks)


Proven optimal solution
MIP Solution:      1653165.491500    (139 iterations, 0 nodes)
Final Solve:       1653165.491500    (3 iterations)

Best possible:     1653165.491500
Absolute gap:            0.000000
Relative gap:            0.000000

--- Reading solution for model LocationAllocation
--- Executing after solve: elapsed 0:00:00.446
--- LocationAllocationBase.gms(124) 4 Mb
*** Status: Normal completion
--- Job LocationAllocationBase.gms Stop 11/04/23 14:06:03 elapsed 0:00:00.446
